(set-logic QF_S)
(declare-fun var_0xINPUT_62747 () String)
(assert (and (= (len var_0xINPUT_62747) 0) (= (len var_0xINPUT_62747) 0) (not (= var_0xINPUT_62747 "Example:")) (= (len var_0xINPUT_62747) 0) (not (= var_0xINPUT_62747 "6JX7G3VKFq"))))
(check-sat var_0xINPUT_62747)